
Gurobi 12.0.1 (mac64[x86], Java) logging started Gio 22 Mag 13:02:51 2025

Set parameter Username
Set parameter LicenseID to value 2656444
Academic license - for non-commercial use only - expires 2026-04-24
Warning: Gurobi version mismatch between Java 12.0.2 and C library 12.0.1
Warning: Gurobi version mismatch between Java 12.0.2 and Jni 12.0.1
Set parameter Presolve to value 0
Gurobi Optimizer version 12.0.1 build v12.0.1rc0 (mac64[x86] - Darwin 22.2.0 22C65)

CPU model: Intel(R) Core(TM) i5-8210Y CPU @ 1.60GHz
Thread count: 2 physical cores, 4 logical processors, using up to 4 threads

Non-default parameters:
Presolve  0

Optimize a model with 6 rows, 4 columns and 11 nonzeros
Model fingerprint: 0x5d758362
Coefficient statistics:
  Matrix range     [1e+00, 2e+00]
  Objective range  [2e-02, 1e-01]
  Bounds range     [0e+00, 0e+00]
  RHS range        [2e+04, 9e+04]

Iteration    Objective       Primal Inf.    Dual Inf.      Time
       0    2.3000000e+29   7.500000e+30   4.600000e-01      0s
       4    4.5000000e+03   0.000000e+00   0.000000e+00      0s

Solved in 4 iterations and 0.02 seconds (0.00 work units)
Optimal objective  4.500000000e+03
